NAME : Viipuri
COMMENT : O-Mopsi
TYPE : TSP
DIMENSION : 11
EDGE_WEIGHT_TYPE : HVS
NODE_COORD_SECTION
1 28.74403827069113 60.71267698499512
2 28.738458691243 60.708363377759
3 28.742867905919 60.713951087575
4 28.747074949126382 60.70969212118508
5 28.737381700753645 60.71297369316659
6 28.744234239438 60.711063355387
7 28.745443412295455 60.709029880321374
8 28.735283124609 60.710311163681
9 28.730340485949 60.71423617273732
10 28.75312642951 60.711192688104
11 28.738953810218163 60.71023796624402
EOF